data/lp_files/q3/63_0.lp
\ Model foo
\ LP format - for model browsing. Use MPS format to capture full model detail.
Minimize
  z
Subject To
 allocateEach[1]: x[1,1] + x[2,1] + x[3,1] + x[4,1] = 1
 allocateEach[2]: x[1,2] + x[2,2] + x[3,2] + x[4,2] = 1
 allocateEach[3]: x[1,3] + x[2,3] + x[3,3] + x[4,3] = 1
 allocateAllCash: cashProportion[1] + cashProportion[2] + cashProportion[3]
   + cashProportion[4] = 1
 findWorstP[1,2]: z + 0.0477554918815664 cashProportion[1]
   - 0.0477554918815664 cashProportion[2] + 0.1359121298949379 x[1,1]
   + 0.1664756446991404 x[1,2] + 0.6498567335243554 x[1,3]
   - 0.1359121298949379 x[2,1] - 0.1664756446991404 x[2,2]
   - 0.6498567335243554 x[2,3] >= 0
 findWorstP[1,3]: z + 0.0477554918815664 cashProportion[1]
   - 0.0477554918815664 cashProportion[3] + 0.1359121298949379 x[1,1]
   + 0.1664756446991404 x[1,2] + 0.6498567335243554 x[1,3]
   - 0.1359121298949379 x[3,1] - 0.1664756446991404 x[3,2]
   - 0.6498567335243554 x[3,3] >= 0
 findWorstP[1,4]: z + 0.0477554918815664 cashProportion[1]
   - 0.0477554918815664 cashProportion[4] + 0.1359121298949379 x[1,1]
   + 0.1664756446991404 x[1,2] + 0.6498567335243554 x[1,3]
   - 0.1359121298949379 x[4,1] - 0.1664756446991404 x[4,2]
   - 0.6498567335243554 x[4,3] >= 0
 findWorstP[2,1]: z - 0.0454297655824096 cashProportion[1]
   + 0.0454297655824096 cashProportion[2] - 0.2479556605487915 x[1,1]
   - 0.269852807559513 x[1,2] - 0.4367617663092858 x[1,3]
   + 0.2479556605487915 x[2,1] + 0.269852807559513 x[2,2]
   + 0.4367617663092858 x[2,3] >= 0
 findWorstP[2,3]: z + 0.0454297655824096 cashProportion[2]
   - 0.0454297655824096 cashProportion[3] + 0.2479556605487915 x[2,1]
   + 0.269852807559513 x[2,2] + 0.4367617663092858 x[2,3]
   - 0.2479556605487915 x[3,1] - 0.269852807559513 x[3,2]
   - 0.4367617663092858 x[3,3] >= 0
 findWorstP[2,4]: z + 0.0454297655824096 cashProportion[2]
   - 0.0454297655824096 cashProportion[4] + 0.2479556605487915 x[2,1]
   + 0.269852807559513 x[2,2] + 0.4367617663092858 x[2,3]
   - 0.2479556605487915 x[4,1] - 0.269852807559513 x[4,2]
   - 0.4367617663092858 x[4,3] >= 0
 findWorstP[3,1]: z - 0.0319488817891374 cashProportion[1]
   + 0.0319488817891374 cashProportion[3] - 0.6330990415335463 x[1,1]
   - 0.2161022364217252 x[1,2] - 0.118849840255591 x[1,3]
   + 0.6330990415335463 x[3,1] + 0.2161022364217252 x[3,2]
   + 0.118849840255591 x[3,3] >= 0
 findWorstP[3,2]: z - 0.0319488817891374 cashProportion[2]
   + 0.0319488817891374 cashProportion[3] - 0.6330990415335463 x[2,1]
   - 0.2161022364217252 x[2,2] - 0.118849840255591 x[2,3]
   + 0.6330990415335463 x[3,1] + 0.2161022364217252 x[3,2]
   + 0.118849840255591 x[3,3] >= 0
 findWorstP[3,4]: z + 0.0319488817891374 cashProportion[3]
   - 0.0319488817891374 cashProportion[4] + 0.6330990415335463 x[3,1]
   + 0.2161022364217252 x[3,2] + 0.118849840255591 x[3,3]
   - 0.6330990415335463 x[4,1] - 0.2161022364217252 x[4,2]
   - 0.118849840255591 x[4,3] >= 0
 findWorstP[4,1]: z - 0.0409031413612565 cashProportion[1]
   + 0.0409031413612565 cashProportion[4] - 0.1946171465968586 x[1,1]
   - 0.3963514397905759 x[1,2] - 0.3681282722513089 x[1,3]
   + 0.1946171465968586 x[4,1] + 0.3963514397905759 x[4,2]
   + 0.3681282722513089 x[4,3] >= 0
 findWorstP[4,2]: z - 0.0409031413612565 cashProportion[2]
   + 0.0409031413612565 cashProportion[4] - 0.1946171465968586 x[2,1]
   - 0.3963514397905759 x[2,2] - 0.3681282722513089 x[2,3]
   + 0.1946171465968586 x[4,1] + 0.3963514397905759 x[4,2]
   + 0.3681282722513089 x[4,3] >= 0
 findWorstP[4,3]: z - 0.0409031413612565 cashProportion[3]
   + 0.0409031413612565 cashProportion[4] - 0.1946171465968586 x[3,1]
   - 0.3963514397905759 x[3,2] - 0.3681282722513089 x[3,3]
   + 0.1946171465968586 x[4,1] + 0.3963514397905759 x[4,2]
   + 0.3681282722513089 x[4,3] >= 0
Bounds
 z <= 1
 -infinity <= cashProportion[1] <= 1
 -infinity <= cashProportion[2] <= 1
 -infinity <= cashProportion[3] <= 1
 -infinity <= cashProportion[4] <= 1
Binaries
 x[1,1] x[1,2] x[1,3] x[2,1] x[2,2] x[2,3] x[3,1] x[3,2] x[3,3] x[4,1]
 x[4,2] x[4,3]
End
